99988699,1 735694947,81 1000
23
28
35
36
42
43
47
56
60
63
64
65
78
84
87
99
102
104
124
125
141
142
147
157
166
177
179
182
186
194
197
219
221
223
224
228
232
257
259
264
266
279
296
305
310
314
316
317
319
328
329
330
344
359
364
371
376
381
382
394
397
403
407
412
420
425
433
436
438
454
462
467
472
473
474
475
490
497
498
501
503
506
515
521
525
530
532
540
543
554
558
570
573
575
581
587
593
595
610
612
618
623
624
625
631
639
641
642
648
653
659
661
680
682
683
684
688
690
692
701
702
703
710
711
712
714
715
716
719
720
721
723
730
734
735
737
739
748
769
781
786
793
794
810
811
813
817
818
822
824
831
855
862
866
878
879
884
885
899
903
906
908
915
926
927
929
931
934
939
943
951
966
971
976
980
981
985
987
996
